MARKOV
1012
 2 2 2 2 2 2 2 2 2 2 2 2 2 2 2 2 2 2 2 2 2 2 2 2 2 2 2 2 2 2 2 2 2 2 2 2 2 2 2 2 2 2 2 2 2 2 2 2 2 2 2 2 2 2 2 2 2 2 2 2 2 2 2 2 2 2 2 2 2 2 2 2 2 2 2 2 2 2 2 2 2 2 2 2 2 2 2 2 2 2 2 2 2 2 2 2 2 2 2 2 2 2 2 2 2 2 2 2 2 2 2 2 2 2 2 2 2 2 2 2 2 2 2 2 2 2 2 2 2 2 2 2 2 2 2 2 2 2 2 2 2 2 2 2 2 2 2 2 2 2 2 2 2 2 2 2 2 2 2 2 2 2 2 2 2 2 2 2 2 2 2 2 2 2 2 2 2 2 2 2 2 2 2 2 2 2 2 2 2 2 2 2 2 2 2 2 2 2 2 2 2 2 2 2 2 2 2 2 2 2 2 2 2 2 2 2 2 2 2 2 2 2 2 2 2 2 2 2 2 2 2 2 2 2 2 2 2 2 2 2 2 2 2 2 2 2 2 2 2 2 2 2 2 2 2 2 2 2 2 2 2 2 2 2 2 2 2 2 2 2 2 2 2 2 2 2 2 2 2 2 2 2 2 2 2 2 2 2 2 2 2 2 2 2 2 2 2 2 2 2 2 2 2 2 2 2 2 2 2 2 2 2 2 2 2 2 2 2 2 2 2 2 2 2 2 2 2 2 2 2 2 2 2 2 2 2 2 2 2 2 2 2 2 2 2 2 2 2 2 2 2 2 2 2 2 2 2 2 2 2 2 2 2 2 2 2 2 2 2 2 2 2 2 2 2 2 2 2 2 2 2 2 2 2 2 2 2 2 2 2 2 2 2 2 2 2 2 2 2 2 2 2 2 2 2 2 2 2 2 2 2 2 2 2 2 2 2 2 2 2 2 2 2 2 2 2 2 2 2 2 2 2 2 2 2 2 2 2 2 2 2 2 2 2 2 2 2 2 2 2 2 2 2 2 2 2 2 2 2 2 2 2 2 2 2 2 2 2 2 2 2 2 2 2 2 2 2 2 2 2 2 2 2 2 2 2 2 2 2 2 2 2 2 2 2 2 2 2 2 2 2 2 2 2 2 2 2 2 2 2 2 2 2 2 2 2 2 2 2 2 2 2 2 2 2 2 2 2 2 2 2 2 2 2 2 2 2 2 2 2 2 2 2 2 2 2 2 2 2 2 2 2 2 2 2 2 2 2 2 2 2 2 2 2 2 2 2 2 2 2 2 2 2 2 2 2 2 2 2 2 2 2 2 2 2 2 2 2 2 2 2 2 2 2 2 2 2 2 2 2 2 2 2 2 2 2 2 2 2 2 2 2 2 2 2 2 2 2 2 2 2 2 2 2 2 2 2 2 2 2 2 2 2 2 2 2 2 2 2 2 2 2 2 2 2 2 2 2 2 2 2 2 2 2 2 2 2 2 2 2 2 2 2 2 2 2 2 2 2 2 2 2 2 2 2 2 2 2 2 2 2 2 2 2 2 2 2 2 2 2 2 2 2 2 2 2 2 2 2 2 2 2 2 2 2 2 2 2 2 2 2 2 2 2 2 2 2 2 2 2 2 2 2 2 2 2 2 2 2 2 2 2 2 2 2 2 2 2 2 2 2 2 2 2 2 2 2 2 2 2 2 2 2 2 2 2 2 2 2 2 2 2 2 2 2 2 2 2 2 2 2 2 2 2 2 2 2 2 2 2 2 2 2 2 2 2 2 2 2 2 2 2 2 2 2 2 2 2 2 2 2 2 2 2 2 2 2 2 2 2 2 2 2 2 2 2 2 2 2 2 2 2 2 2 2 2 2 2 2 2 2 2 2 2 2 2 2 2 2 2 2 2 2 2 2 2 2 2 2 2 2 2 2 2 2 2 2 2 2 2 2 2 2 2 2 2 2 2 2 2 2 2 2 2 2 2 2 2 2 2 2 2 2 2 2 2 2 2 2 2 2 2 2 2 2 2 2 2 2 2 2 2 2 2 2 2 2 2 2 2 2 2 2 2 2 2 2 2 2 2 2 2 2 2 2 2 2 2 2 2 2 2 2 2 2 2 2 2 2 2 2 2 2 2 2 2 2 2 2 2 2 2 2 2 2 2 2 2 2 2 2 2 2 2 2 2 2 2 2 2 2 2 2 2 2 2 2 2 2 2 2 2 2 2 2 2 2 2 2 2 2 2 2 2 2 2 2 2 2 2 2 2 2 2 2 2 2 2 2 2 2 2
1022
1	235 
3	173 280 1011 
3	138 1010 1011 
3	1 1009 1010 
3	287 1008 1009 
3	247 1007 1008 
3	335 1006 1007 
3	63 1005 1006 
3	171 1004 1005 
3	256 1003 1004 
3	59 1002 1003 
3	364 1001 1002 
3	13 1000 1001 
3	324 999 1000 
3	340 998 999 
3	12 997 998 
3	344 996 997 
3	120 995 996 
3	279 994 995 
3	233 993 994 
3	104 992 993 
3	17 991 992 
3	312 990 991 
3	276 989 990 
3	332 988 989 
3	24 987 988 
3	303 986 987 
3	263 985 986 
3	342 984 985 
3	199 983 984 
3	107 982 983 
3	223 981 982 
3	351 980 981 
3	307 979 980 
3	152 978 979 
3	300 977 978 
3	129 976 977 
3	16 975 976 
3	209 974 975 
3	250 973 974 
3	198 972 973 
3	217 971 972 
3	320 970 971 
3	326 969 970 
3	135 968 969 
3	197 967 968 
3	286 966 967 
3	262 965 966 
3	311 964 965 
3	214 963 964 
3	136 962 963 
3	139 961 962 
3	33 960 961 
3	39 959 960 
3	131 958 959 
3	140 957 958 
3	334 956 957 
3	212 955 956 
3	259 954 955 
3	222 953 954 
3	164 952 953 
3	245 951 952 
3	84 950 951 
3	353 949 950 
3	11 948 949 
3	313 947 948 
3	231 946 947 
3	257 945 946 
3	200 944 945 
3	218 943 944 
3	258 942 943 
3	360 941 942 
3	127 940 941 
3	193 939 940 
3	205 938 939 
3	91 937 938 
3	288 936 937 
3	282 935 936 
3	19 934 935 
3	14 933 934 
3	72 932 933 
3	162 931 932 
3	309 930 931 
3	157 929 930 
3	228 928 929 
3	227 927 928 
3	242 926 927 
3	82 925 926 
3	203 924 925 
1	924 
3	138 173 923 
3	287 922 923 
3	1 921 922 
3	247 920 921 
3	214 919 920 
3	63 918 919 
3	256 917 918 
3	156 916 917 
3	140 915 916 
3	131 914 915 
3	13 913 914 
3	66 912 913 
3	334 911 912 
3	260 910 911 
3	42 909 910 
3	212 908 909 
3	179 907 908 
3	316 906 907 
3	340 905 906 
3	259 904 905 
3	222 903 904 
3	344 902 903 
3	12 901 902 
3	100 900 901 
3	120 899 900 
3	238 898 899 
3	245 897 898 
3	84 896 897 
3	240 895 896 
3	231 894 895 
3	312 893 894 
3	258 892 893 
3	332 891 892 
3	24 890 891 
3	303 889 890 
3	263 888 889 
3	158 887 888 
3	331 886 887 
3	199 885 886 
3	193 884 885 
3	307 883 884 
3	129 882 883 
3	288 881 882 
3	282 880 881 
3	19 879 880 
3	14 878 879 
3	10 877 878 
3	72 876 877 
3	116 875 876 
3	201 874 875 
3	217 873 874 
3	352 872 873 
3	162 871 872 
3	320 870 871 
3	157 869 870 
3	227 868 869 
3	242 867 868 
3	291 866 867 
3	203 865 866 
1	865 
3	280 287 864 
3	93 863 864 
3	117 862 863 
3	322 861 862 
3	156 860 861 
3	59 859 860 
3	67 858 859 
3	119 857 858 
3	340 856 857 
3	248 855 856 
3	206 854 855 
3	144 853 854 
3	47 852 853 
3	178 851 852 
3	165 850 851 
3	38 849 850 
3	281 848 849 
3	312 847 848 
3	332 846 847 
3	303 845 846 
3	263 844 845 
3	199 843 844 
3	331 842 843 
3	317 841 842 
3	107 840 841 
3	327 839 840 
3	307 838 839 
3	126 837 838 
3	152 836 837 
3	130 835 836 
3	116 834 835 
3	76 833 834 
3	22 832 833 
3	135 831 832 
3	197 830 831 
3	308 829 830 
3	136 828 829 
3	321 827 828 
3	266 826 827 
3	54 825 826 
3	98 824 825 
3	139 823 824 
3	354 822 823 
3	114 821 822 
3	102 820 821 
3	140 819 820 
3	68 818 819 
3	334 817 818 
3	179 816 817 
3	207 815 816 
3	328 814 815 
3	110 813 814 
3	222 812 813 
3	100 811 812 
3	18 810 811 
3	180 809 810 
3	85 808 809 
3	84 807 808 
3	343 806 807 
3	302 805 806 
3	293 804 805 
3	257 803 804 
3	32 802 803 
3	80 801 802 
3	9 800 801 
3	258 799 800 
3	78 798 799 
3	194 797 798 
3	95 796 797 
3	264 795 796 
3	29 794 795 
3	127 793 794 
3	161 792 793 
3	297 791 792 
3	330 790 791 
3	282 789 790 
3	115 788 789 
3	14 787 788 
3	229 786 787 
3	89 785 786 
3	79 784 785 
3	226 783 784 
3	162 782 783 
3	157 781 782 
3	337 780 781 
3	133 779 780 
3	291 778 779 
3	253 777 778 
3	173 776 777 
3	177 775 776 
3	138 774 775 
3	77 773 774 
3	1 772 773 
3	247 771 772 
3	335 770 771 
3	63 769 770 
3	86 768 769 
3	53 767 768 
3	256 766 767 
3	333 765 766 
3	13 764 765 
3	66 763 764 
3	289 762 763 
3	345 761 762 
3	42 760 761 
3	316 759 760 
3	12 758 759 
3	344 757 758 
3	225 756 757 
3	238 755 756 
3	120 754 755 
3	279 753 754 
3	167 752 753 
3	319 751 752 
3	274 750 751 
3	325 749 750 
3	24 748 749 
3	94 747 748 
3	159 746 747 
3	269 745 746 
3	351 744 745 
3	239 743 744 
3	44 742 743 
3	174 741 742 
3	300 740 741 
3	129 739 740 
3	209 738 739 
3	273 737 738 
3	250 736 737 
3	201 735 736 
3	198 734 735 
3	217 733 734 
3	170 732 733 
3	108 731 732 
3	352 730 731 
3	271 729 730 
3	320 728 729 
3	286 727 728 
3	155 726 727 
3	304 725 726 
3	311 724 725 
3	176 723 724 
3	214 722 723 
3	362 721 722 
3	284 720 721 
3	6 719 720 
3	33 718 719 
3	43 717 718 
3	39 716 717 
3	131 715 716 
3	260 714 715 
3	212 713 714 
3	329 712 713 
3	259 711 712 
3	25 710 711 
3	245 709 710 
3	353 708 709 
3	294 707 708 
3	240 706 707 
3	231 705 706 
3	200 704 705 
3	158 703 704 
3	360 702 703 
3	193 701 702 
3	112 700 701 
3	70 699 700 
3	64 698 699 
3	288 697 698 
3	21 696 697 
3	19 695 696 
3	10 694 695 
3	72 693 694 
3	35 692 693 
3	227 691 692 
3	242 690 691 
3	82 689 690 
3	203 688 689 
1	688 
3	138 280 687 
3	103 686 687 
3	186 685 686 
3	106 684 685 
3	150 683 684 
3	335 682 683 
3	63 681 682 
3	153 680 681 
3	86 679 680 
3	117 678 679 
3	75 677 678 
3	143 676 677 
3	261 675 676 
3	333 674 675 
3	256 673 674 
3	111 672 673 
3	301 671 672 
3	59 670 671 
3	188 669 670 
3	13 668 669 
3	96 667 668 
3	241 666 667 
3	265 665 666 
3	211 664 665 
3	277 663 664 
3	175 662 663 
3	30 661 662 
3	278 660 661 
3	347 659 660 
3	113 658 659 
3	151 657 658 
3	8 656 657 
3	109 655 656 
3	206 654 655 
3	12 653 654 
3	355 652 653 
3	318 651 652 
3	336 650 651 
3	47 649 650 
3	88 648 649 
3	279 647 648 
3	149 646 647 
3	60 645 646 
3	41 644 645 
3	210 643 644 
3	61 642 643 
3	141 641 642 
3	204 640 641 
3	172 639 640 
3	5 638 639 
3	74 637 638 
3	349 636 637 
3	317 635 636 
3	107 634 635 
3	145 633 634 
3	223 632 633 
3	118 631 632 
3	269 630 631 
3	283 629 630 
3	92 628 629 
3	44 627 628 
3	300 626 627 
3	192 625 626 
3	48 624 625 
3	163 623 624 
3	250 622 623 
3	285 621 622 
3	187 620 621 
3	73 619 620 
3	128 618 619 
3	169 617 618 
3	37 616 617 
3	31 615 616 
3	83 614 615 
3	290 613 614 
3	220 612 613 
3	195 611 612 
3	97 610 611 
3	49 609 610 
3	314 608 609 
3	361 607 608 
3	286 606 607 
3	99 605 606 
3	182 604 605 
3	155 603 604 
3	147 602 603 
3	304 601 602 
3	292 600 601 
3	214 599 600 
3	136 598 599 
3	124 597 598 
3	305 596 597 
3	246 595 596 
3	266 594 595 
3	139 593 594 
3	33 592 593 
3	315 591 592 
3	50 590 591 
3	39 589 590 
3	196 588 589 
3	299 587 588 
3	212 586 587 
3	230 585 586 
3	272 584 585 
3	329 583 584 
3	323 582 583 
3	110 581 582 
3	122 580 581 
3	134 579 580 
3	255 578 579 
3	189 577 578 
3	58 576 577 
3	296 575 576 
3	275 574 575 
3	353 573 574 
3	20 572 573 
3	343 571 572 
3	57 570 571 
3	357 569 570 
3	306 568 569 
3	313 567 568 
3	237 566 567 
3	183 565 566 
3	200 564 565 
3	257 563 564 
3	32 562 563 
3	190 561 562 
3	202 560 561 
3	208 559 560 
3	146 558 559 
3	3 557 558 
3	310 556 557 
3	28 555 556 
3	166 554 555 
3	264 553 554 
3	71 552 553 
3	251 551 552 
3	15 550 551 
3	132 549 550 
3	168 548 549 
3	161 547 548 
3	297 546 547 
3	346 545 546 
3	236 544 545 
3	358 543 544 
3	26 542 543 
3	52 541 542 
3	244 540 541 
3	282 539 540 
3	229 538 539 
3	221 537 538 
3	185 536 537 
3	34 535 536 
3	79 534 535 
3	36 533 534 
3	350 532 533 
3	125 531 532 
3	365 530 531 
3	142 529 530 
3	291 528 529 
3	82 527 528 
3	339 526 527 
3	341 525 526 
1	525 
3	138 311 524 
3	121 523 524 
3	362 522 523 
3	136 521 522 
3	86 520 521 
3	101 519 520 
3	117 518 519 
3	6 517 518 
3	139 516 517 
3	333 515 516 
3	13 514 515 
3	299 513 514 
3	62 512 513 
3	298 511 512 
3	329 510 511 
3	27 509 510 
3	110 508 509 
3	151 507 508 
3	216 506 507 
3	137 505 506 
3	148 504 505 
3	353 503 504 
3	85 502 503 
3	279 501 502 
3	47 500 501 
3	160 499 500 
3	293 498 499 
3	313 497 498 
3	3 496 497 
3	219 495 496 
3	194 494 495 
3	264 493 494 
3	331 492 493 
3	223 491 492 
3	159 490 491 
3	181 489 490 
3	213 488 489 
3	297 487 488 
3	40 486 487 
3	16 485 486 
3	115 484 485 
3	252 483 484 
3	243 482 483 
3	295 481 482 
3	79 480 481 
3	195 479 480 
3	191 478 479 
3	348 477 478 
3	0 476 477 
3	135 475 476 
3	215 474 475 
1	474 
3	77 138 473 
3	292 472 473 
3	184 471 472 
3	136 470 471 
3	139 469 470 
3	33 468 469 
3	268 467 468 
3	156 466 467 
3	81 465 466 
3	289 464 465 
3	68 463 464 
3	179 462 463 
3	207 461 462 
3	298 460 461 
3	224 459 460 
3	45 458 459 
3	62 457 458 
3	113 456 457 
3	151 455 456 
3	134 454 455 
3	69 453 454 
3	137 452 453 
3	144 451 452 
3	18 450 451 
3	353 449 450 
3	56 448 449 
3	279 447 448 
3	363 446 447 
3	293 445 446 
3	105 444 445 
3	104 443 444 
3	17 442 443 
3	218 441 442 
3	32 440 441 
3	319 439 440 
3	23 438 439 
3	78 437 438 
3	325 436 437 
3	87 435 436 
3	154 434 435 
3	123 433 434 
3	4 432 433 
3	267 431 432 
3	338 430 431 
3	234 429 430 
3	51 428 429 
3	327 427 428 
3	40 426 427 
3	55 425 426 
3	90 424 425 
3	16 423 424 
3	243 422 423 
3	252 421 422 
3	273 420 421 
3	232 419 420 
3	7 418 419 
3	130 417 418 
3	2 416 417 
3	187 415 416 
3	89 414 415 
3	128 413 414 
3	254 412 413 
3	65 411 412 
3	270 410 411 
3	46 409 410 
3	348 408 409 
3	228 407 408 
3	135 406 407 
3	249 405 406 
3	356 404 405 
3	291 403 404 
1	403 
3	95 110 402 
3	10 401 402 
3	158 400 401 
3	344 399 400 
3	25 398 399 
3	116 397 398 
3	238 396 397 
3	127 395 396 
3	321 394 395 
3	170 393 394 
3	352 392 393 
3	157 391 392 
3	131 390 391 
3	9 389 390 
3	66 388 389 
3	80 387 388 
3	258 386 387 
3	359 385 386 
1	385 
3	95 110 384 
3	10 383 384 
3	158 382 383 
3	344 381 382 
3	25 380 381 
3	116 379 380 
3	127 378 379 
3	238 377 378 
3	321 376 377 
3	170 375 376 
3	352 374 375 
3	157 373 374 
3	131 372 373 
3	9 371 372 
3	66 370 371 
3	80 369 370 
3	258 368 369 
3	359 367 368 
3	316 366 367 
1	366 
1	103 
1	184 
1	153 
1	93 
1	75 
1	322 
1	301 
1	59 
1	188 
1	81 
1	265 
1	324 
1	298 
1	347 
1	119 
1	109 
1	216 
1	318 
1	137 
1	47 
1	88 
1	165 
1	61 
1	281 
1	74 
1	276 
1	332 
1	199 
1	317 
1	283 
1	92 
1	243 
1	192 
1	163 
1	187 
1	116 
1	220 
1	22 
1	348 
1	326 
1	135 
1	356 
1	197 
1	361 
1	136 
1	266 
1	98 
1	140 
1	299 
1	334 
1	179 
1	272 
1	207 
1	328 
1	134 
1	222 
1	100 
1	18 
1	296 
1	84 
1	20 
1	57 
1	357 
1	11 
1	237 
1	32 
1	218 
1	80 
1	258 
1	154 
1	127 
1	338 
1	181 
1	161 
1	297 
1	282 
1	7 
1	89 
1	185 
1	226 
1	46 
1	125 
1	365 
1	173 
1	77 
1	247 
1	106 
1	150 
1	335 
1	63 
1	86 
1	171 
1	101 
1	53 
1	364 
1	13 
1	66 
1	241 
1	30 
1	42 
1	62 
1	316 
1	113 
1	27 
1	344 
1	225 
1	336 
1	60 
1	233 
1	41 
1	210 
1	17 
1	172 
1	167 
1	319 
1	223 
1	159 
1	269 
1	118 
1	351 
1	239 
1	44 
1	129 
1	273 
1	252 
1	250 
1	128 
1	65 
1	195 
1	217 
1	270 
1	97 
1	286 
1	99 
1	182 
1	155 
1	147 
1	311 
1	304 
1	176 
1	214 
1	284 
1	124 
1	246 
1	6 
1	33 
1	43 
1	39 
1	131 
1	329 
1	122 
1	69 
1	255 
1	25 
1	164 
1	58 
1	148 
1	275 
1	245 
1	353 
1	160 
1	240 
1	231 
1	23 
1	146 
1	3 
1	28 
1	158 
1	166 
1	123 
1	205 
1	112 
1	4 
1	91 
1	15 
1	70 
1	168 
1	90 
1	64 
1	346 
1	236 
1	26 
1	288 
1	244 
1	21 
1	10 
1	72 
1	221 
1	309 
1	35 
1	249 
1	82 
1	203 
1	280 
1	287 
1	186 
1	117 
1	261 
1	268 
1	156 
1	67 
1	211 
1	277 
1	175 
1	224 
1	340 
1	8 
1	206 
1	248 
1	144 
1	178 
1	38 
1	141 
1	204 
1	312 
1	303 
1	263 
1	331 
1	107 
1	145 
1	51 
1	327 
1	126 
1	307 
1	152 
1	16 
1	130 
1	73 
1	254 
1	31 
1	290 
1	76 
1	49 
1	314 
1	308 
1	262 
1	359 
1	305 
1	321 
1	54 
1	139 
1	354 
1	114 
1	50 
1	102 
1	68 
1	230 
1	323 
1	110 
1	189 
1	235 
1	180 
1	85 
1	343 
1	302 
1	306 
1	293 
1	105 
1	313 
1	257 
1	9 
1	78 
1	310 
1	194 
1	95 
1	87 
1	264 
1	29 
1	71 
1	251 
1	213 
1	55 
1	330 
1	115 
1	52 
1	232 
1	14 
1	229 
1	79 
1	191 
1	36 
1	350 
1	162 
1	157 
1	337 
1	133 
1	291 
1	253 
1	339 
1	138 
1	177 
1	1 
1	121 
1	143 
1	256 
1	333 
1	111 
1	96 
1	289 
1	345 
1	278 
1	151 
1	12 
1	355 
1	238 
1	120 
1	56 
1	279 
1	149 
1	363 
1	104 
1	5 
1	274 
1	219 
1	325 
1	24 
1	342 
1	94 
1	349 
1	40 
1	174 
1	300 
1	209 
1	48 
1	285 
1	169 
1	37 
1	83 
1	201 
1	198 
1	170 
1	108 
1	352 
1	271 
1	320 
1	292 
1	362 
1	315 
1	196 
1	260 
1	212 
1	45 
1	259 
1	294 
1	183 
1	200 
1	190 
1	202 
1	208 
1	360 
1	193 
1	267 
1	234 
1	132 
1	358 
1	19 
1	2 
1	295 
1	34 
1	228 
1	0 
1	227 
1	142 
1	242 
1	215 
1	341 
0	

2
 0 0.8
8
 1 0 0.9 0.1 0.05 0.95 0.045 0.955
8
 1 0 0 1 0.9 0 0.1 1
8
 1 0 0 1 0.05 0 0.95 1
8
 1 0 0 1 0.05 0 0.95 1
8
 1 0 0 1 0.05 0 0.95 1
8
 1 0 0 1 0.9 0 0.1 1
8
 1 0 0 1 0.05 0 0.95 1
8
 1 0 0 1 0.3 0 0.7 1
8
 1 0 0 1 0.1 0 0.9 1
8
 1 0 0 1 0.9 0 0.1 1
8
 1 0 0 1 0.3 0 0.7 1
8
 1 0 0 1 0.05 0 0.95 1
8
 1 0 0 1 0.3 0 0.7 1
8
 1 0 0 1 0.05 0 0.95 1
8
 1 0 0 1 0.05 0 0.95 1
8
 1 0 0 1 0.05 0 0.95 1
8
 1 0 0 1 0.05 0 0.95 1
8
 1 0 0 1 0.5 0 0.5 1
8
 1 0 0 1 0.3 0 0.7 1
8
 1 0 0 1 0.5 0 0.5 1
8
 1 0 0 1 0.9 0 0.1 1
8
 1 0 0 1 0.05 0 0.95 1
8
 1 0 0 1 0.3 0 0.7 1
8
 1 0 0 1 0.05 0 0.95 1
8
 1 0 0 1 0.05 0 0.95 1
8
 1 0 0 1 0.05 0 0.95 1
8
 1 0 0 1 0.05 0 0.95 1
8
 1 0 0 1 0.5 0 0.5 1
8
 1 0 0 1 0.4 0 0.6 1
8
 1 0 0 1 0.9 0 0.1 1
8
 1 0 0 1 0.5 0 0.5 1
8
 1 0 0 1 0.7 0 0.3 1
8
 1 0 0 1 0.01 0 0.99 1
8
 1 0 0 1 0.9 0 0.1 1
8
 1 0 0 1 0.9 0 0.1 1
8
 1 0 0 1 0.05 0 0.95 1
8
 1 0 0 1 0.4 0 0.6 1
8
 1 0 0 1 0.9 0 0.1 1
8
 1 0 0 1 0.9 0 0.1 1
8
 1 0 0 1 0.75 0 0.25 1
8
 1 0 0 1 0.05 0 0.95 1
8
 1 0 0 1 0.05 0 0.95 1
8
 1 0 0 1 0.3 0 0.7 1
8
 1 0 0 1 0.9 0 0.1 1
8
 1 0 0 1 0.5 0 0.5 1
8
 1 0 0 1 0.9 0 0.1 1
8
 1 0 0 1 0.3 0 0.7 1
8
 1 0 0 1 0.5 0 0.5 1
8
 1 0 0 1 0.05 0 0.95 1
8
 1 0 0 1 0.9 0 0.1 1
8
 1 0 0 1 0.9 0 0.1 1
8
 1 0 0 1 0.9 0 0.1 1
8
 1 0 0 1 0.9 0 0.1 1
8
 1 0 0 1 0.05 0 0.95 1
8
 1 0 0 1 0.05 0 0.95 1
8
 1 0 0 1 0.05 0 0.95 1
8
 1 0 0 1 0.05 0 0.95 1
8
 1 0 0 1 0.05 0 0.95 1
8
 1 0 0 1 0.05 0 0.95 1
8
 1 0 0 1 0.3 0 0.7 1
8
 1 0 0 1 0.05 0 0.95 1
8
 1 0 0 1 0.05 0 0.95 1
8
 1 0 0 1 0.9 0 0.1 1
8
 1 0 0 1 0.3 0 0.7 1
8
 1 0 0 1 0.5 0 0.5 1
8
 1 0 0 1 0.05 0 0.95 1
8
 1 0 0 1 0.1 0 0.9 1
8
 1 0 0 1 0.9 0 0.1 1
8
 1 0 0 1 0.89 0 0.11 1
8
 1 0 0 1 0.05 0 0.95 1
8
 1 0 0 1 0.9 0 0.1 1
8
 1 0 0 1 0.89 0 0.11 1
8
 1 0 0 1 0.05 0 0.95 1
8
 1 0 0 1 0.5 0 0.5 1
8
 1 0 0 1 0.09 0 0.91 1
8
 1 0 0 1 0.05 0 0.95 1
8
 1 0 0 1 0.02 0 0.98 1
8
 1 0 0 1 0.05 0 0.95 1
8
 1 0 0 1 0.2 0 0.8 1
8
 1 0 0 1 0.05 0 0.95 1
8
 1 0 0 1 0.05 0 0.95 1
8
 1 0 0 1 0.3 0 0.7 1
8
 1 0 0 1 0.05 0 0.95 1
8
 1 0 0 1 0.4 0 0.6 1
8
 1 0 0 1 0.05 0 0.95 1
8
 1 0 0 1 0.05 0 0.95 1
8
 1 0 0 1 0.9 0 0.1 1
8
 1 0 0 1 0.05 0 0.95 1
2
 0.03 1
8
 1 0 0 1 0 1 0 1
8
 1 0 0 1 0 0 1 1
8
 1 0 0 1 0 0 1 1
8
 1 0 0 1 0 0 1 1
8
 1 0 0 1 0 0 1 1
8
 1 0 0 1 0 0 1 1
8
 1 0 0 1 0 0 1 1
8
 1 0 0 1 0 0 1 1
8
 1 0 0 1 0 0 1 1
8
 1 0 0 1 0 0 1 1
8
 1 0 0 1 0 0 1 1
8
 1 0 0 1 0 0 1 1
8
 1 0 0 1 0 0 1 1
8
 1 0 0 1 0 0 1 1
8
 1 0 0 1 0 0 1 1
8
 1 0 0 1 0 0 1 1
8
 1 0 0 1 0 0 1 1
8
 1 0 0 1 0 0 1 1
8
 1 0 0 1 0 0 1 1
8
 1 0 0 1 0 0 1 1
8
 1 0 0 1 0 0 1 1
8
 1 0 0 1 0 0 1 1
8
 1 0 0 1 0 0 1 1
8
 1 0 0 1 0 0 1 1
8
 1 0 0 1 0 0 1 1
8
 1 0 0 1 0 0 1 1
8
 1 0 0 1 0 0 1 1
8
 1 0 0 1 0 0 1 1
8
 1 0 0 1 0 0 1 1
8
 1 0 0 1 0 0 1 1
8
 1 0 0 1 0 0 1 1
8
 1 0 0 1 0 0 1 1
8
 1 0 0 1 0 0 1 1
8
 1 0 0 1 0 0 1 1
8
 1 0 0 1 0 0 1 1
8
 1 0 0 1 0 0 1 1
8
 1 0 0 1 0 0 1 1
8
 1 0 0 1 0 0 1 1
8
 1 0 0 1 0 0 1 1
8
 1 0 0 1 0 0 1 1
8
 1 0 0 1 0 0 1 1
8
 1 0 0 1 0 0 1 1
8
 1 0 0 1 0 0 1 1
8
 1 0 0 1 0 0 1 1
8
 1 0 0 1 0 0 1 1
8
 1 0 0 1 0 0 1 1
8
 1 0 0 1 0 0 1 1
8
 1 0 0 1 0 0 1 1
8
 1 0 0 1 0 0 1 1
8
 1 0 0 1 0 0 1 1
8
 1 0 0 1 0 0 1 1
8
 1 0 0 1 0 0 1 1
8
 1 0 0 1 0 0 1 1
8
 1 0 0 1 0 0 1 1
8
 1 0 0 1 0 0 1 1
8
 1 0 0 1 0 0 1 1
8
 1 0 0 1 0 0 1 1
8
 1 0 0 1 0 0 1 1
8
 1 0 0 1 0 0 1 1
2
 0.03 1
8
 1 0 0 1 0.9 0.1 0 1
8
 1 0 0 1 0.2 0 0.8 1
8
 1 0 0 1 0.4 0 0.6 1
8
 1 0 0 1 0.5 0 0.5 1
8
 1 0 0 1 0 0 1 1
8
 1 0 0 1 0.9 0 0.1 1
8
 1 0 0 1 0.5 0 0.5 1
8
 1 0 0 1 0.5 0 0.5 1
8
 1 0 0 1 0 0 1 1
8
 1 0 0 1 0.89 0 0.11 1
8
 1 0 0 1 0.5 0 0.5 1
8
 1 0 0 1 0.2 0 0.8 1
8
 1 0 0 1 0.4 0 0.6 1
8
 1 0 0 1 0.1 0 0.9 1
8
 1 0 0 1 0.5 0 0.5 1
8
 1 0 0 1 0.5 0 0.5 1
8
 1 0 0 1 0.1 0 0.9 1
8
 1 0 0 1 0 0 1 1
8
 1 0 0 1 0.5 0 0.5 1
8
 1 0 0 1 0.01 0 0.99 1
8
 1 0 0 1 0 0 1 1
8
 1 0 0 1 0 0 1 1
8
 1 0 0 1 0 0 1 1
8
 1 0 0 1 0.5 0 0.5 1
8
 1 0 0 1 0.9 0 0.1 1
8
 1 0 0 1 0.5 0 0.5 1
8
 1 0 0 1 0 0 1 1
8
 1 0 0 1 0.5 0 0.5 1
8
 1 0 0 1 0.9 0 0.1 1
8
 1 0 0 1 0.5 0 0.5 1
8
 1 0 0 1 0 0 1 1
8
 1 0 0 1 0.1 0 0.9 1
8
 1 0 0 1 0.5 0 0.5 1
8
 1 0 0 1 0.9 0 0.1 1
8
 1 0 0 1 0.5 0 0.5 1
8
 1 0 0 1 0.5 0 0.5 1
8
 1 0 0 1 0.9 0 0.1 1
8
 1 0 0 1 0.09 0 0.91 1
8
 1 0 0 1 0.5 0 0.5 1
8
 1 0 0 1 0.1 0 0.9 1
8
 1 0 0 1 0.5 0 0.5 1
8
 1 0 0 1 0.9 0 0.1 1
8
 1 0 0 1 0.09 0 0.91 1
8
 1 0 0 1 0.5 0 0.5 1
8
 1 0 0 1 0.5 0 0.5 1
8
 1 0 0 1 0 0 1 1
8
 1 0 0 1 0.5 0 0.5 1
8
 1 0 0 1 0 0 1 1
8
 1 0 0 1 0 0 1 1
8
 1 0 0 1 0.5 0 0.5 1
8
 1 0 0 1 0.1 0 0.9 1
8
 1 0 0 1 0.57 0 0.43 1
8
 1 0 0 1 0 0 1 1
8
 1 0 0 1 0 0 1 1
8
 1 0 0 1 0.5 0 0.5 1
8
 1 0 0 1 0.5 0 0.5 1
8
 1 0 0 1 0.9 0 0.1 1
8
 1 0 0 1 0 0 1 1
8
 1 0 0 1 0.5 0 0.5 1
8
 1 0 0 1 0.1 0 0.9 1
8
 1 0 0 1 0.5 0 0.5 1
8
 1 0 0 1 0.1 0 0.9 1
8
 1 0 0 1 0.5 0 0.5 1
8
 1 0 0 1 0.4 0 0.6 1
8
 1 0 0 1 0.5 0 0.5 1
8
 1 0 0 1 0 0 1 1
8
 1 0 0 1 0.5 0 0.5 1
8
 1 0 0 1 0.9 0 0.1 1
8
 1 0 0 1 0.5 0 0.5 1
8
 1 0 0 1 0.89 0 0.11 1
8
 1 0 0 1 0.5 0 0.5 1
8
 1 0 0 1 0.5 0 0.5 1
8
 1 0 0 1 0.5 0 0.5 1
8
 1 0 0 1 0.4 0 0.6 1
8
 1 0 0 1 0.5 0 0.5 1
8
 1 0 0 1 0 0 1 1
8
 1 0 0 1 0.1 0 0.9 1
8
 1 0 0 1 0.6 0 0.4 1
8
 1 0 0 1 0.5 0 0.5 1
8
 1 0 0 1 0.1 0 0.9 1
8
 1 0 0 1 0.4 0 0.6 1
8
 1 0 0 1 0.5 0 0.5 1
8
 1 0 0 1 0 0 1 1
8
 1 0 0 1 0 0 1 1
8
 1 0 0 1 0.1 0 0.9 1
8
 1 0 0 1 0.59 0 0.41 1
8
 1 0 0 1 0 0 1 1
8
 1 0 0 1 0.4 0 0.6 1
8
 1 0 0 1 0 0 1 1
8
 1 0 0 1 0.5 0 0.5 1
8
 1 0 0 1 0.9 0 0.1 1
8
 1 0 0 1 0.5 0 0.5 1
8
 1 0 0 1 0 0 1 1
8
 1 0 0 1 0 0 1 1
8
 1 0 0 1 0.9 0 0.1 1
8
 1 0 0 1 0.6 0 0.4 1
8
 1 0 0 1 0.4 0 0.6 1
8
 1 0 0 1 0.5 0 0.5 1
8
 1 0 0 1 0.1 0 0.9 1
8
 1 0 0 1 0.4 0 0.6 1
8
 1 0 0 1 0 0 1 1
8
 1 0 0 1 0 0 1 1
8
 1 0 0 1 0.5 0 0.5 1
8
 1 0 0 1 0.09 0 0.91 1
8
 1 0 0 1 0 0 1 1
8
 1 0 0 1 0 0 1 1
8
 1 0 0 1 0 0 1 1
8
 1 0 0 1 0 0 1 1
8
 1 0 0 1 0.89 0 0.11 1
8
 1 0 0 1 0 0 1 1
8
 1 0 0 1 0 0 1 1
8
 1 0 0 1 0.5 0 0.5 1
8
 1 0 0 1 0.5 0 0.5 1
8
 1 0 0 1 0.5 0 0.5 1
8
 1 0 0 1 0.5 0 0.5 1
8
 1 0 0 1 0.5 0 0.5 1
8
 1 0 0 1 0 0 1 1
8
 1 0 0 1 0.5 0 0.5 1
8
 1 0 0 1 0.4 0 0.6 1
8
 1 0 0 1 0.5 0 0.5 1
8
 1 0 0 1 0.7 0 0.3 1
8
 1 0 0 1 0.5 0 0.5 1
8
 1 0 0 1 0.89 0 0.11 1
8
 1 0 0 1 0.5 0 0.5 1
8
 1 0 0 1 0.9 0 0.1 1
8
 1 0 0 1 0 0 1 1
8
 1 0 0 1 0.9 0 0.1 1
8
 1 0 0 1 0.5 0 0.5 1
8
 1 0 0 1 0.5 0 0.5 1
8
 1 0 0 1 0 0 1 1
8
 1 0 0 1 0.75 0 0.25 1
8
 1 0 0 1 0 0 1 1
8
 1 0 0 1 0.09 0 0.91 1
8
 1 0 0 1 0.5 0 0.5 1
8
 1 0 0 1 0 0 1 1
8
 1 0 0 1 0.5 0 0.5 1
8
 1 0 0 1 0 0 1 1
8
 1 0 0 1 0.9 0 0.1 1
8
 1 0 0 1 0.7 0 0.3 1
8
 1 0 0 1 0.4 0 0.6 1
8
 1 0 0 1 0.5 0 0.5 1
8
 1 0 0 1 0.1 0 0.9 1
8
 1 0 0 1 0 0 1 1
8
 1 0 0 1 0.6 0 0.4 1
8
 1 0 0 1 0.5 0 0.5 1
8
 1 0 0 1 0.4 0 0.6 1
8
 1 0 0 1 0.9 0 0.1 1
8
 1 0 0 1 0.5 0 0.5 1
8
 1 0 0 1 0.9 0 0.1 1
8
 1 0 0 1 0 0 1 1
8
 1 0 0 1 0 0 1 1
8
 1 0 0 1 0 0 1 1
8
 1 0 0 1 0.4 0 0.6 1
8
 1 0 0 1 0 0 1 1
8
 1 0 0 1 0.09 0 0.91 1
8
 1 0 0 1 0 0 1 1
8
 1 0 0 1 0.9 0 0.1 1
8
 1 0 0 1 0.5 0 0.5 1
8
 1 0 0 1 0 0 1 1
8
 1 0 0 1 0 0 1 1
8
 1 0 0 1 0.9 0 0.1 1
8
 1 0 0 1 0 0 1 1
8
 1 0 0 1 0.9 0 0.1 1
8
 1 0 0 1 0 0 1 1
8
 1 0 0 1 0.05 0 0.95 1
8
 1 0 0 1 0.5 0 0.5 1
8
 1 0 0 1 0.5 0 0.5 1
8
 1 0 0 1 0 0 1 1
8
 1 0 0 1 0.5 0 0.5 1
8
 1 0 0 1 0 0 1 1
8
 1 0 0 1 0.1 0 0.9 1
8
 1 0 0 1 0 0 1 1
8
 1 0 0 1 0.5 0 0.5 1
8
 1 0 0 1 0 0 1 1
8
 1 0 0 1 0 0 1 1
8
 1 0 0 1 0.9 0 0.1 1
8
 1 0 0 1 0.01 0 0.99 1
2
 0.03 1
8
 1 0 0.9 0.1 0.9 0.1 0.81 0.19
8
 1 0 0 1 0 0 1 1
8
 1 0 0 1 0.3 0 0.7 1
8
 1 0 0 1 0.05 0 0.95 1
8
 1 0 0 1 0.5 0 0.5 1
8
 1 0 0 1 0.9 0 0.1 1
8
 1 0 0 1 0 0 1 1
8
 1 0 0 1 0.5 0 0.5 1
8
 1 0 0 1 0.5 0 0.5 1
8
 1 0 0 1 0.5 0 0.5 1
8
 1 0 0 1 0.89 0 0.11 1
8
 1 0 0 1 0.9 0 0.1 1
8
 1 0 0 1 0.9 0 0.1 1
8
 1 0 0 1 0.5 0 0.5 1
8
 1 0 0 1 0.9 0 0.1 1
8
 1 0 0 1 0.9 0 0.1 1
8
 1 0 0 1 0.5 0 0.5 1
8
 1 0 0 1 0.9 0 0.1 1
8
 1 0 0 1 0 0 1 1
8
 1 0 0 1 0 0 1 1
8
 1 0 0 1 0.89 0 0.11 1
8
 1 0 0 1 0.9 0 0.1 1
8
 1 0 0 1 0.9 0 0.1 1
8
 1 0 0 1 0.5 0 0.5 1
8
 1 0 0 1 0.05 0 0.95 1
8
 1 0 0 1 0.89 0 0.11 1
8
 1 0 0 1 0.9 0 0.1 1
8
 1 0 0 1 0.4 0 0.6 1
8
 1 0 0 1 0.9 0 0.1 1
8
 1 0 0 1 0.9 0 0.1 1
8
 1 0 0 1 0.8 0 0.2 1
8
 1 0 0 1 0.9 0 0.1 1
8
 1 0 0 1 0.94 0 0.06 1
8
 1 0 0 1 0.5 0 0.5 1
8
 1 0 0 1 0 0 1 1
8
 1 0 0 1 0.89 0 0.11 1
8
 1 0 0 1 0.3 0 0.7 1
8
 1 0 0 1 0.02 0 0.98 1
8
 1 0 0 1 0.5 0 0.5 1
8
 1 0 0 1 0.9 0 0.1 1
8
 1 0 0 1 0.9 0 0.1 1
8
 1 0 0 1 0.3 0 0.7 1
8
 1 0 0 1 0.9 0 0.1 1
8
 1 0 0 1 0.9 0 0.1 1
8
 1 0 0 1 0.5 0 0.5 1
8
 1 0 0 1 0.3 0 0.7 1
8
 1 0 0 1 0.09 0 0.91 1
8
 1 0 0 1 0.3 0 0.7 1
8
 1 0 0 1 0.9 0 0.1 1
8
 1 0 0 1 0.9 0 0.1 1
8
 1 0 0 1 0.3 0 0.7 1
8
 1 0 0 1 0.94 0 0.06 1
8
 1 0 0 1 0.5 0 0.5 1
8
 1 0 0 1 0.9 0 0.1 1
8
 1 0 0 1 0.79 0 0.21 1
8
 1 0 0 1 0.5 0 0.5 1
8
 1 0 0 1 0.5 0 0.5 1
8
 1 0 0 1 0.5 0 0.5 1
8
 1 0 0 1 0.9 0 0.1 1
8
 1 0 0 1 0.01 0 0.99 1
8
 1 0 0 1 0.89 0 0.11 1
8
 1 0 0 1 0.8 0 0.2 1
8
 1 0 0 1 0.3 0 0.7 1
8
 1 0 0 1 0.89 0 0.11 1
8
 1 0 0 1 0.9 0 0.1 1
8
 1 0 0 1 0.9 0 0.1 1
8
 1 0 0 1 0.85 0 0.15 1
8
 1 0 0 1 0.89 0 0.11 1
8
 1 0 0 1 0.89 0 0.11 1
8
 1 0 0 1 0.8 0 0.2 1
8
 1 0 0 1 0.89 0 0.11 1
8
 1 0 0 1 0.3 0 0.7 1
8
 1 0 0 1 0.8 0 0.2 1
8
 1 0 0 1 0.9 0 0.1 1
8
 1 0 0 1 0.9 0 0.1 1
8
 1 0 0 1 0.5 0 0.5 1
8
 1 0 0 1 0.5 0 0.5 1
8
 1 0 0 1 0.9 0 0.1 1
8
 1 0 0 1 0.8 0 0.2 1
8
 1 0 0 1 0.01 0 0.99 1
8
 1 0 0 1 0.9 0 0.1 1
8
 1 0 0 1 0.9 0 0.1 1
8
 1 0 0 1 0.9 0 0.1 1
8
 1 0 0 1 0.8 0 0.2 1
8
 1 0 0 1 0.7 0 0.3 1
8
 1 0 0 1 0.2 0 0.8 1
8
 1 0 0 1 0.05 0 0.95 1
8
 1 0 0 1 0.8 0 0.2 1
8
 1 0 0 1 0.89 0 0.11 1
8
 1 0 0 1 0.9 0 0.1 1
8
 1 0 0 1 0.3 0 0.7 1
8
 1 0 0 1 0.9 0 0.1 1
8
 1 0 0 1 0.9 0 0.1 1
8
 1 0 0 1 0.5 0 0.5 1
8
 1 0 0 1 0.9 0 0.1 1
8
 1 0 0 1 0.5 0 0.5 1
8
 1 0 0 1 0 0 1 1
8
 1 0 0 1 0.4 0 0.6 1
8
 1 0 0 1 0.9 0 0.1 1
8
 1 0 0 1 0.3 0 0.7 1
8
 1 0 0 1 0.8 0 0.2 1
8
 1 0 0 1 0 0 1 1
8
 1 0 0 1 0.89 0 0.11 1
8
 1 0 0 1 0.3 0 0.7 1
8
 1 0 0 1 0.5 0 0.5 1
8
 1 0 0 1 0.8 0 0.2 1
8
 1 0 0 1 0.61 0 0.39 1
8
 1 0 0 1 0.86 0 0.14 1
8
 1 0 0 1 0.9 0 0.1 1
8
 1 0 0 1 0.94 0 0.06 1
8
 1 0 0 1 0.3 0 0.7 1
8
 1 0 0 1 0.01 0 0.99 1
8
 1 0 0 1 0.9 0 0.1 1
8
 1 0 0 1 0.9 0 0.1 1
8
 1 0 0 1 0.9 0 0.1 1
8
 1 0 0 1 0.9 0 0.1 1
8
 1 0 0 1 0.5 0 0.5 1
8
 1 0 0 1 0.1 0 0.9 1
8
 1 0 0 1 0.9 0 0.1 1
8
 1 0 0 1 0.9 0 0.1 1
8
 1 0 0 1 0.9 0 0.1 1
8
 1 0 0 1 0.9 0 0.1 1
8
 1 0 0 1 0 0 1 1
8
 1 0 0 1 0.9 0 0.1 1
8
 1 0 0 1 0.5 0 0.5 1
8
 1 0 0 1 0.5 0 0.5 1
8
 1 0 0 1 0.1 0 0.9 1
8
 1 0 0 1 0 0 1 1
8
 1 0 0 1 0 0 1 1
8
 1 0 0 1 0.3 0 0.7 1
8
 1 0 0 1 0.5 0 0.5 1
8
 1 0 0 1 0.2 0 0.8 1
8
 1 0 0 1 0.9 0 0.1 1
8
 1 0 0 1 0.5 0 0.5 1
8
 1 0 0 1 0.89 0 0.11 1
8
 1 0 0 1 0.8 0 0.2 1
8
 1 0 0 1 0.89 0 0.11 1
8
 1 0 0 1 0.89 0 0.11 1
8
 1 0 0 1 0.89 0 0.11 1
8
 1 0 0 1 0.9 0 0.1 1
8
 1 0 0 1 0.5 0 0.5 1
8
 1 0 0 1 0.5 0 0.5 1
8
 1 0 0 1 0.3 0 0.7 1
8
 1 0 0 1 0.9 0 0.1 1
8
 1 0 0 1 0.8 0 0.2 1
8
 1 0 0 1 0.8 0 0.2 1
8
 1 0 0 1 0.5 0 0.5 1
8
 1 0 0 1 0.8 0 0.2 1
8
 1 0 0 1 0.01 0 0.99 1
8
 1 0 0 1 0.5 0 0.5 1
8
 1 0 0 1 0.9 0 0.1 1
8
 1 0 0 1 0 0 1 1
8
 1 0 0 1 0.3 0 0.7 1
8
 1 0 0 1 0.5 0 0.5 1
8
 1 0 0 1 0.4 0 0.6 1
8
 1 0 0 1 0.8 0 0.2 1
8
 1 0 0 1 0.9 0 0.1 1
8
 1 0 0 1 0.9 0 0.1 1
8
 1 0 0 1 0.89 0 0.11 1
8
 1 0 0 1 0.2 0 0.8 1
8
 1 0 0 1 0.9 0 0.1 1
8
 1 0 0 1 0.89 0 0.11 1
8
 1 0 0 1 0.94 0 0.06 1
2
 0.03 1
8
 1 0 0.5 0.5 0.2 0.8 0.1 0.9
8
 1 0 0 1 0.6 0 0.4 1
8
 1 0 0 1 0.4 0 0.6 1
8
 1 0 0 1 0.5 0 0.5 1
8
 1 0 0 1 0.4 0 0.6 1
8
 1 0 0 1 0.5 0 0.5 1
8
 1 0 0 1 0.4 0 0.6 1
8
 1 0 0 1 0.1 0 0.9 1
8
 1 0 0 1 0.5 0 0.5 1
8
 1 0 0 1 0.4 0 0.6 1
8
 1 0 0 1 0.7 0 0.3 1
8
 1 0 0 1 0.5 0 0.5 1
8
 1 0 0 1 0.2 0 0.8 1
8
 1 0 0 1 0.5 0 0.5 1
8
 1 0 0 1 0.4 0 0.6 1
8
 1 0 0 1 0.1 0 0.9 1
8
 1 0 0 1 0.75 0 0.25 1
8
 1 0 0 1 0.2 0 0.8 1
8
 1 0 0 1 0.1 0 0.9 1
8
 1 0 0 1 0.5 0 0.5 1
8
 1 0 0 1 0.5 0 0.5 1
8
 1 0 0 1 0.2 0 0.8 1
8
 1 0 0 1 0.9 0 0.1 1
8
 1 0 0 1 0.5 0 0.5 1
8
 1 0 0 1 0.4 0 0.6 1
8
 1 0 0 1 0.5 0 0.5 1
8
 1 0 0 1 0.2 0 0.8 1
8
 1 0 0 1 0.5 0 0.5 1
8
 1 0 0 1 0.5 0 0.5 1
8
 1 0 0 1 0.5 0 0.5 1
8
 1 0 0 1 0.4 0 0.6 1
8
 1 0 0 1 0.89 0 0.11 1
8
 1 0 0 1 0.5 0 0.5 1
8
 1 0 0 1 0.5 0 0.5 1
8
 1 0 0 1 0.9 0 0.1 1
8
 1 0 0 1 0.1 0 0.9 1
8
 1 0 0 1 0.1 0 0.9 1
8
 1 0 0 1 0.4 0 0.6 1
8
 1 0 0 1 0.2 0 0.8 1
8
 1 0 0 1 0.4 0 0.6 1
8
 1 0 0 1 0.5 0 0.5 1
8
 1 0 0 1 0.2 0 0.8 1
8
 1 0 0 1 0.2 0 0.8 1
8
 1 0 0 1 0.2 0 0.8 1
8
 1 0 0 1 0.4 0 0.6 1
8
 1 0 0 1 0.5 0 0.5 1
8
 1 0 0 1 0.1 0 0.9 1
8
 1 0 0 1 0.05 0 0.95 1
8
 1 0 0 1 0.6 0 0.4 1
8
 1 0 0 1 0.5 0 0.5 1
8
 1 0 0 1 0.5 0 0.5 1
2
 0.03 1
8
 1 0 0.1 0.9 0.5 0.5 0.05 0.95
8
 1 0 0 1 0.5 0 0.5 1
8
 1 0 0 1 0.1 0 0.9 1
8
 1 0 0 1 0.1 0 0.9 1
8
 1 0 0 1 0.1 0 0.9 1
8
 1 0 0 1 0.09 0 0.91 1
8
 1 0 0 1 0.5 0 0.5 1
8
 1 0 0 1 0.01 0 0.99 1
8
 1 0 0 1 0.95 0 0.05 1
8
 1 0 0 1 0.5 0 0.5 1
8
 1 0 0 1 0.19 0 0.81 1
8
 1 0 0 1 0.01 0 0.99 1
8
 1 0 0 1 0.01 0 0.99 1
8
 1 0 0 1 0.09 0 0.91 1
8
 1 0 0 1 0.5 0 0.5 1
8
 1 0 0 1 0.01 0 0.99 1
8
 1 0 0 1 0.1 0 0.9 1
8
 1 0 0 1 0.05 0 0.95 1
8
 1 0 0 1 0.1 0 0.9 1
8
 1 0 0 1 0.19 0 0.81 1
8
 1 0 0 1 0.19 0 0.81 1
8
 1 0 0 1 0.1 0 0.9 1
8
 1 0 0 1 0.05 0 0.95 1
8
 1 0 0 1 0.5 0 0.5 1
8
 1 0 0 1 0.05 0 0.95 1
8
 1 0 0 1 0.01 0 0.99 1
8
 1 0 0 1 0.5 0 0.5 1
8
 1 0 0 1 0.2 0 0.8 1
8
 1 0 0 1 0.1 0 0.9 1
8
 1 0 0 1 0.5 0 0.5 1
8
 1 0 0 1 0.5 0 0.5 1
8
 1 0 0 1 0.95 0 0.05 1
8
 1 0 0 1 0.89 0 0.11 1
8
 1 0 0 1 0.5 0 0.5 1
8
 1 0 0 1 0.5 0 0.5 1
8
 1 0 0 1 0.01 0 0.99 1
8
 1 0 0 1 0.5 0 0.5 1
8
 1 0 0 1 0.2 0 0.8 1
8
 1 0 0 1 0.5 0 0.5 1
8
 1 0 0 1 0.5 0 0.5 1
8
 1 0 0 1 0.09 0 0.91 1
8
 1 0 0 1 0.19 0 0.81 1
8
 1 0 0 1 0.5 0 0.5 1
8
 1 0 0 1 0.09 0 0.91 1
8
 1 0 0 1 0.5 0 0.5 1
8
 1 0 0 1 0.59 0 0.41 1
8
 1 0 0 1 0.5 0 0.5 1
8
 1 0 0 1 0.1 0 0.9 1
8
 1 0 0 1 0.1 0 0.9 1
8
 1 0 0 1 0.01 0 0.99 1
8
 1 0 0 1 0.3 0 0.7 1
8
 1 0 0 1 0 0 1 1
8
 1 0 0 1 0.1 0 0.9 1
8
 1 0 0 1 0.5 0 0.5 1
8
 1 0 0 1 0.5 0 0.5 1
8
 1 0 0 1 0.19 0 0.81 1
8
 1 0 0 1 0.5 0 0.5 1
8
 1 0 0 1 0.19 0 0.81 1
8
 1 0 0 1 0.09 0 0.91 1
8
 1 0 0 1 0.1 0 0.9 1
8
 1 0 0 1 0.5 0 0.5 1
8
 1 0 0 1 0.5 0 0.5 1
8
 1 0 0 1 0.59 0 0.41 1
8
 1 0 0 1 0.05 0 0.95 1
8
 1 0 0 1 0.19 0 0.81 1
8
 1 0 0 1 0.05 0 0.95 1
8
 1 0 0 1 0.2 0 0.8 1
8
 1 0 0 1 0.1 0 0.9 1
8
 1 0 0 1 0.5 0 0.5 1
8
 1 0 0 1 0.5 0 0.5 1
8
 1 0 0 1 0.1 0 0.9 1
2
 0.03 1
8
 1 0 0.57 0.43 0.5 0.5 0.285 0.715
8
 1 0 0 1 0.1 0 0.9 1
8
 1 0 0 1 0 0 1 1
8
 1 0 0 1 0.09 0 0.91 1
8
 1 0 0 1 0.5 0 0.5 1
8
 1 0 0 1 0.1 0 0.9 1
8
 1 0 0 1 0 0 1 1
8
 1 0 0 1 0.5 0 0.5 1
8
 1 0 0 1 0.5 0 0.5 1
8
 1 0 0 1 0.5 0 0.5 1
8
 1 0 0 1 0 0 1 1
8
 1 0 0 1 0.01 0 0.99 1
8
 1 0 0 1 0.5 0 0.5 1
8
 1 0 0 1 0.5 0 0.5 1
8
 1 0 0 1 0 0 1 1
8
 1 0 0 1 0.4 0 0.6 1
8
 1 0 0 1 0.1 0 0.9 1
8
 1 0 0 1 0.01 0 0.99 1
2
 0.03 1
8
 1 0 0.57 0.43 0.5 0.5 0.285 0.715
8
 1 0 0 1 0.1 0 0.9 1
8
 1 0 0 1 0.01 0 0.99 1
8
 1 0 0 1 0.09 0 0.91 1
8
 1 0 0 1 0.5 0 0.5 1
8
 1 0 0 1 0.1 0 0.9 1
8
 1 0 0 1 0.5 0 0.5 1
8
 1 0 0 1 0.01 0 0.99 1
8
 1 0 0 1 0.5 0 0.5 1
8
 1 0 0 1 0.5 0 0.5 1
8
 1 0 0 1 0.05 0 0.95 1
8
 1 0 0 1 0.01 0 0.99 1
8
 1 0 0 1 0.5 0 0.5 1
8
 1 0 0 1 0.5 0 0.5 1
8
 1 0 0 1 0.01 0 0.99 1
8
 1 0 0 1 0.4 0 0.6 1
8
 1 0 0 1 0.1 0 0.9 1
8
 1 0 0 1 0.01 0 0.99 1
8
 1 0 0 1 0.2 0 0.8 1
2
 0.03 1
2
 0.99995 5e-05
2
 0.99968 0.00032
2
 0.9999 0.0001
2
 0.999995 5e-06
2
 0.9999 0.0001
2
 0.99999 1e-05
2
 0.9999 0.0001
2
 0.99975 0.00025
2
 0.99998 2e-05
2
 0.9998 0.0002
2
 0.999993 7e-06
2
 0.9999 0.0001
2
 0.9998 0.0002
2
 1 4e-08
2
 0.99999 1e-05
2
 0.999999 1.4e-06
2
 0.999998 2e-06
2
 0.99995 5e-05
2
 0.9999 0.0001
2
 0.9999 0.0001
2
 0.999977 2.342e-05
2
 0.99989 0.00011
2
 0.99998 2e-05
2
 0.9999 0.0001
2
 0.99998 2e-05
2
 0.9999 0.0001
2
 0.99998 2e-05
2
 0.99995 5e-05
2
 0.99974 0.00026
2
 1 1.1e-07
2
 0.99998 2e-05
2
 0.9996 0.0004
2
 0.99999 1e-05
2
 0.999999 1.26e-06
2
 0.99996 4e-05
2
 0.99998 2e-05
2
 0.9995 0.0005
2
 0.9999 0.0001
2
 0.9999 0.0001
2
 0.9991 0.0009
2
 0.99992 8e-05
2
 0.9995 0.0005
2
 0.9999 0.0001
2
 0.99989 0.00011
2
 0.9996 0.0004
2
 0.99995 5e-05
2
 0.9995 0.0005
2
 0.9999 0.0001
2
 0.999999 1e-06
2
 0.9999 0.0001
2
 0.9995 0.0005
2
 0.99999 1e-05
2
 0.99995 5e-05
2
 0.9999 0.0001
2
 0.99991 9e-05
2
 0.9996 0.0004
2
 0.99998 2e-05
2
 0.99999 1e-05
2
 0.99986 0.00014
2
 0.9999 0.0001
2
 0.99982 0.00018
2
 0.9999 0.0001
2
 0.99999 1e-05
2
 0.9997 0.0003
2
 0.99995 5e-05
2
 0.9991 0.0009
2
 0.99993 7e-05
2
 0.9998 0.0002
2
 0.9998 0.0002
2
 0.9999 0.0001
2
 0.9999 0.0001
2
 0.9995 0.0005
2
 0.99996 4e-05
2
 0.9997 0.0003
2
 0.9999 0.0001
2
 0.99993 7e-05
2
 0.9999 0.0001
2
 0.9999 0.0001
2
 0.99991 9e-05
2
 0.9999 0.0001
2
 0.999 0.001
2
 1 1e-08
2
 1 4e-08
2
 0.9999 0.0001
2
 0.9999 0.0001
2
 0.9999 0.0001
2
 0.99999 1e-05
2
 0.9999 0.0001
2
 0.999977 2.291e-05
2
 0.9996 0.0004
2
 0.996 0.004
2
 0.9991 0.0009
2
 0.999999 1e-06
2
 0.99989 0.00011
2
 1 2e-07
2
 0.998 0.002
2
 0.99975 0.00025
2
 0.995 0.005
2
 0.99998 2.003e-05
2
 0.994 0.006
2
 0.9999 0.0001
2
 0.99987 0.00013
2
 0.9997 0.0003
2
 0.9999 0.0001
2
 0.99995 5e-05
2
 0.99999 1e-05
2
 0.99995 5e-05
2
 1 2.8e-07
2
 0.999 0.001
2
 0.999991 8.59e-06
2
 0.99995 5e-05
2
 0.997 0.003
2
 0.999999 1e-06
2
 0.99995 5e-05
2
 0.9999 0.0001
2
 0.9999 0.0001
2
 0.999996 4e-06
2
 0.9995 0.0005
2
 0.9999 0.0001
2
 1 1.6e-07
2
 0.9999 0.0001
2
 0.9999 0.0001
2
 0.9999 0.0001
2
 0.9999 0.0001
2
 0.99989 0.00011
2
 0.999969 3.12e-05
2
 0.999999 1e-06
2
 0.9992 0.0008
2
 0.99975 0.00025
2
 0.9999 0.0001
2
 0.9999 0.0001
2
 1 1e-08
2
 0.99999 1e-05
2
 0.9995 0.0005
2
 1 1.4e-07
2
 0.9998 0.0002
2
 0.999953 4.733e-05
2
 0.99998 2e-05
2
 0.9999 0.0001
2
 0.9999 0.0001
2
 0.9999 0.0001
2
 0.9995 0.0005
2
 0.99995 5e-05
2
 0.99994 6e-05
2
 0.99991 9e-05
2
 0.99991 9e-05
2
 0.9999 0.0001
2
 0.9999 0.0001
2
 0.99995 5e-05
2
 0.9995 0.0005
2
 1 2.9e-07
2
 0.9999 0.0001
2
 1 6e-08
2
 0.99994 6e-05
2
 0.998 0.002
2
 0.9998 0.0002
2
 0.9979 0.0021
2
 0.999994 6e-06
2
 0.9999 0.0001
2
 0.9998 0.0002
2
 0.999999 1e-06
2
 0.99997 3e-05
2
 0.99997 3e-05
2
 0.99995 5e-05
2
 0.99997 3e-05
2
 0.999999 1e-06
2
 1 1e-08
2
 0.99989 0.00011
2
 0.99998 2e-05
2
 0.9997 0.0003
2
 0.9998 0.0002
2
 0.9999 0.0001
2
 0.999999 1e-06
2
 0.99995 5e-05
2
 0.9999 0.0001
2
 0.9999 0.0001
2
 1 1e-08
2
 0.9999 0.0001
2
 0.99997 3e-05
2
 0.99998 2e-05
2
 1 1e-07
2
 1 1e-07
2
 0.9999 0.0001
2
 0.99997 3e-05
2
 0.99999 1e-05
2
 0.99996 4e-05
2
 0.9999 0.0001
2
 0.999585 0.000415
2
 0.9995 0.0005
2
 0.9998 0.0002
2
 0.9999 0.0001
2
 0.9999 0.0001
2
 0.99993 7e-05
2
 0.9995 0.0005
2
 0.99995 5e-05
2
 0.99997 3e-05
2
 0.9999 0.0001
2
 0.999999 8.1e-07
2
 0.9986 0.0014
2
 0.999 0.001
2
 0.99999 1e-05
2
 0.9999 0.0001
2
 0.9981 0.0019
2
 0.9999 0.0001
2
 0.99991 9e-05
2
 0.9999 0.0001
2
 0.99989 0.00011
2
 0.99975 0.00025
2
 0.9999 0.0001
2
 0.9999 0.0001
2
 0.999999 1e-06
2
 0.9999 0.0001
2
 0.9996 0.0004
2
 0.99994 6e-05
2
 0.9999 0.0001
2
 0.99999 1e-05
2
 0.9999 0.0001
2
 0.998 0.002
2
 0.999998 2e-06
2
 0.9999 0.0001
2
 0.999999 1e-06
2
 0.99989 0.00011
2
 0.9999 0.0001
2
 0.99995 5e-05
2
 0.99996 4e-05
2
 0.99982 0.00018
2
 0.99981 0.00019
2
 0.9999 0.0001
2
 0.9999 0.0001
2
 1 1e-08
2
 1 1.7e-07
2
 0.9999 0.0001
2
 1 1.1e-07
2
 0.99997 3e-05
2
 0.99999 1e-05
2
 0.9999 0.0001
2
 0.99998 2e-05
2
 1 6e-08
2
 0.99996 4e-05
2
 0.9999 0.0001
2
 0.999973 2.7e-05
2
 0.99995 5e-05
2
 0.99999 1e-05
2
 0.9999 0.0001
2
 0.9999 0.0001
2
 0.99982 0.00018
2
 0.9999 0.0001
2
 1 1e-08
2
 0.9999 0.0001
2
 0.99998 2e-05
2
 0.9998 0.0002
2
 0.9999 0.0001
2
 0.9998 0.0002
2
 0.9995 0.0005
2
 0.99999 1e-05
2
 0.999997 2.88e-06
2
 0.9995 0.0005
2
 0.9994 0.0006
2
 0.99922 0.00078
2
 0.9998 0.0002
2
 0.99995 5e-05
2
 0.9998 0.0002
2
 0.9999 0.0001
2
 0.9994 0.0006
2
 0.99999 1e-05
2
 0.99995 5e-05
2
 0.9999 0.0001
2
 0.9995 0.0005
2
 0.99999 1e-05
2
 0.9999 0.0001
2
 0.9998 0.0002
2
 0.9995 0.0005
2
 0.99984 0.00016
2
 0.9996 0.0004
2
 0.999 0.001
2
 0.9999 0.0001
2
 0.99997 3e-05
2
 0.999 0.001
2
 0.996 0.004
2
 0.9996 0.0004
2
 0.99996 4e-05
2
 1 4e-08
2
 0.9999 0.0001
2
 0.99998 2e-05
2
 0.99995 5e-05
2
 0.9965 0.0035
2
 0.9999 0.0001
2
 0.9928 0.0072
2
 0.9999 0.0001
2
 0.99985 0.00015
2
 0.99996 4e-05
2
 0.9999 0.0001
2
 0.9995 0.0005
2
 0.9985 0.0015
2
 0.99995 5e-05
2
 0.9999 0.0001
2
 1 1e-08
2
 0.999784 0.000216
2
 0.9988 0.0012
2
 0.99995 5e-05
2
 0.9995 0.0005
2
 0.999999 6.2e-07
2
 0.99995 5e-05
2
 0.9999 0.0001
2
 0.9999 0.0001
2
 0.99998 2e-05
2
 0.99974 0.00026
2
 1 1.2e-07
2
 0.99998 2e-05
2
 0.9995 0.0005
2
 0.9996 0.0004
2
 0.9997 0.0003
2
 0.99998 2e-05
2
 0.999997 2.82e-06
2
 0.99999 1e-05
2
 0.9999 0.0001
2
 0.9995 0.0005
2
 0.9999 0.0001
2
 1 2e-08
2
 0.9994 0.0006
2
 0.9999 0.0001
2
 0.999907 9.332e-05
2
 0.9994 0.0006
2
 0.9999 0.0001
2
 0.999999 5.4e-07
2
 0.9999 0.0001
2
 0.99997 3e-05
2
 0.999999 1e-06
2
 0.99995 5e-05
2
 0.999992 8e-06
2
 0.99975 0.00025
2
 0.9999 0.0001
2
 0.99764 0.00236
2
 0.99999 1e-05
2
 0.9999 0.0001
2
 0.99999 1e-05
2
 0.9995 0.0005
2
 0.999 0.001
2
 0.99999 1e-05
2
 0.99997 3e-05
2
 0.9985 0.0015
2
 0.9999 0.0001
2
 0.99995 5e-05
2
 0.9999 0.0001
2
 0.99998 2e-05
2
 0.9999 0.0001
2
 0.99997 3e-05
2
 0.99994 6e-05
2
 0.99999 1e-05
2
 0.9995 0.0005
2
 0.9999 0.0001
2
 0.9975 0.0025
2
 0.9995 0.0005
2
 0.9999 0.0001
2
 0.99989 0.00011
2
 0.9999 0.0001
2
 0.99997 3e-05
2
 0.9995 0.0005
2
 0.9999 0.0001
2
 0.9994 0.0006
2
 0.99996 4e-05
2
 0.99997 3e-05
2
 0.9999 0.0001
2
 0.99998 2e-05
2
 0.99996 4e-05
2
 1 5e-07
1
 1

